; benchmark generated from python API
(set-info :status unknown)
(declare-datatypes ((RealState 0)) (((RMk1 (rval1 Real)) (RMk2 (rval2 Real)))))
 (declare-fun I2uscore1dollarskuscore239 () Real)
(declare-fun ep () Real)
(declare-fun V () Real)
(declare-fun v2uscore1dollarskuscore239 () Real)
(declare-fun v1uscore1dollarskuscore239 () Real)
(declare-fun t246uscore0 () Real)
(declare-fun A () Real)
(declare-fun v2 () Real)
(declare-fun v1 () Real)
(declare-fun B () Real)
(declare-fun x2 () Real)
(declare-fun xI2 () Real)
(declare-fun I2 () Real)
(declare-fun x1 () Real)
(declare-fun xI1 () Real)
(declare-fun I1 () Real)
(declare-fun I1uscore1dollarskuscore239 () Real)
(declare-fun x2uscore1dollarskuscore170 () Real)
(assert
 (let (($x175 (exists ((ts246uscore0_st RealState) (val!151 Real) )(let (($x30 (= I2uscore1dollarskuscore239 2.0)))
 (let (($x134 (or (= 0.0 2.0) $x30)))
 (let (($x92 (>= v2uscore1dollarskuscore239 0.0)))
 (let (($x81 (>= v1uscore1dollarskuscore239 0.0)))
 (let (($x47 (and (and (and $x81 (<= v1uscore1dollarskuscore239 V)) $x92) (<= v2uscore1dollarskuscore239 V))))
 (let (($x143 (=> (and (<= 0.0 (rval2 ts246uscore0_st)) (<= (rval2 ts246uscore0_st) t246uscore0)) (and $x47 (<= (+ (rval2 ts246uscore0_st) 0.0) ep)))))
 (let (($x89 (>= t246uscore0 0.0)))
 (let (($x127 (>= A 0.0)))
 (let (($x187 (>= v2 0.0)))
 (let (($x106 (>= v1 0.0)))
 (let (($x236 (= I2 2.0)))
 (let (($x172 (= I1 2.0)))
 (let (($x152 (= I1uscore1dollarskuscore239 2.0)))
 (let (($x98 (= v1uscore1dollarskuscore239 V)))
 (let (($x95 (= xI2 x2uscore1dollarskuscore170)))
 (let (($x161 (= v2uscore1dollarskuscore239 V)))
 (let (($x252 (and (and (and (and (and (and $x161 $x95) $x98) $x30) $x152) $x172) (< xI1 x1))))
 (let (($x207 (and (and (and (and $x252 $x236) (< xI2 x2)) (> B 0.0)) $x106)))
 (let (($x149 (and (and (and (and (and $x207 (<= v1 V)) $x187) (<= v2 V)) $x127) (> V 0.0))))
 (let (($x166 (and $x149 (> ep 0.0))))
 (let (($x94 (not (= ts246uscore0_st (RMk1 val!151)))))
 (and $x94 (=> (and $x166 $x89 $x143) $x134))))))))))))))))))))))))
 ))
 (not $x175)))
(check-sat)
